p cnf 989 1248
c ind 691 692 693 706 713 739 800 801 814 821 0
c ind 825 827 830 846 848 851 863 864 883 885 0
c ind 889 900 901 905 906 907 911 913 684 799 0
c ind 714 726 685 686 798 689 690 797 974 956 0
c ind 965 979 960 970 987 973 955 964 978 959 0
c ind 969 986 942 943 972 954 963 977 958 968 0
c ind 941 985 971 953 962 976 940 957 967 984 0
c ind 948 952 982 938 939 937 932 950 936 980 0
c ind 935 934 933 951 981 961 975 966 983 949 0
c ind 930 931 687 688 929 924 928 927 926 925 0
c ind 945 922 923 915 916 921 946 920 919 918 0
c ind 917 895 896 894 893 892 914 904 902 903 0
c ind 891 890 912 899 888 910 908 909 897 898 0
c ind 887 886 879 947 944 884 882 880 881 878 0
c ind 871 870 877 876 875 874 873 872 869 868 0
c ind 867 866 865 683 858 857 855 856 854 853 0
c ind 859 860 852 850 861 849 862 847 845 843 0
c ind 844 842 841 840 839 838 837 836 834 835 0
c ind 833 832 831 829 828 826 824 822 823 804 0
c ind 820 815 819 816 817 811 818 813 809 810 0
c ind 812 808 803 807 805 806 802 796 789 781 0
c ind 795 794 793 696 792 775 774 773 791 772 0
c ind 790 771 770 769 788 787 786 785 784 783 0
c ind 782 780 779 778 777 776 768 761 753 767 0
c ind 766 765 764 747 746 745 763 744 762 743 0
c ind 742 741 760 759 758 757 756 755 754 752 0
c ind 751 750 749 748 740 738 736 737 727 728 0
c ind 735 734 733 732 731 729 730 723 722 724 0
c ind 725 721 720 719 718 716 717 715 712 711 0
c ind 707 708 709 710 703 705 702 701 704 695 0
c ind 700 694 699 697 698 1 0
c ret 596 597 598 599 600 601 602 603 604 605 0
c ret 606 607 608 609 610 611 612 613 614 615 0
c ret 616 617 618 619 620 621 622 623 624 625 0
c ret 626 627 628 629 630 631 632 633 634 635 0
c ret 636 637 638 639 640 641 642 643 644 645 0
c ret 646 647 648 649 291 650 651 297 298 299 0
c ret 300 301 302 303 304 305 652 306 653 307 0
c ret 308 309 654 310 655 311 312 313 314 315 0
c ret 316 317 656 318 319 320 657 658 321 322 0
c ret 659 660 323 324 325 326 327 328 329 661 0
c ret 330 331 332 333 292 334 662 663 335 336 0
c ret 337 338 664 665 339 340 341 342 343 344 0
c ret 345 346 347 348 666 667 349 350 351 668 0
c ret 669 352 353 354 355 356 357 358 359 670 0
c ret 360 361 362 363 364 365 671 366 672 367 0
c ret 673 368 674 369 370 371 372 373 374 293 0
c ret 375 675 676 376 377 677 378 379 380 381 0
c ret 382 383 384 385 386 387 388 678 389 390 0
c ret 391 392 393 394 679 395 680 396 681 397 0
c ret 682 398 399 400 401 402 403 404 405 406 0
c ret 407 408 409 410 411 412 413 414 294 415 0
c ret 416 417 418 419 420 421 422 423 424 425 0
c ret 426 427 428 429 430 431 432 433 434 435 0
c ret 436 437 438 439 440 441 442 443 444 445 0
c ret 446 447 448 449 450 451 452 453 454 455 0
c ret 456 457 458 459 460 461 462 463 464 465 0
c ret 466 467 468 469 470 471 472 473 474 475 0
c ret 476 477 478 479 480 481 482 483 484 485 0
c ret 295 486 487 488 489 490 491 492 493 494 0
c ret 495 496 497 498 499 500 501 502 503 504 0
c ret 505 506 507 508 509 510 511 512 513 514 0
c ret 515 516 517 518 519 520 521 522 523 524 0
c ret 296 525 526 527 528 529 530 531 532 533 0
c ret 534 535 536 537 538 539 540 541 542 543 0
c ret 544 545 546 547 548 549 550 551 552 553 0
c ret 554 555 556 557 558 559 560 561 562 563 0
c ret 564 565 566 567 568 569 570 571 572 573 0
c ret 574 575 576 577 578 579 580 581 582 583 0
c ret 584 585 586 587 588 589 590 591 592 593 0
c ret 594 595 0
2 4 5 -286 0
2 3 5 -286 0
-2 286 0
-2 -5 0
-2 -3 -4 0
3 523 0
3 -524 530 0
3 524 531 0
-3 -523 524 -531 0
-3 -523 -524 -530 0
4 523 0
4 -524 -530 0
4 524 -531 0
-4 -523 524 531 0
-4 -523 -524 530 0
5 6 54 100 -121 0
5 -6 -54 100 -121 0
-5 -100 0
-5 6 -54 0
-5 121 0
-5 -6 54 0
6 7 -13 0
6 7 50 0
-6 -7 0
-6 13 -50 0
7 -9 -10 0
7 -8 -10 0
-7 10 0
-7 8 9 0
8 915 0
8 -916 -922 0
8 916 -923 0
-8 -915 916 923 0
-8 -915 -916 922 0
-8 9 0
9 -924 930 0
9 924 931 0
8 -9 -924 -930 0
8 -9 924 -931 0
10 -11 -12 0
-8 10 -12 0
-10 12 0
8 -10 11 0
-8 11 0
11 924 -931 0
11 -924 -930 0
8 -11 -924 930 0
8 -11 924 931 0
12 915 0
12 -916 922 0
12 916 923 0
-12 -915 916 -923 0
-12 -915 -916 -922 0
13 -14 -49 -965 0
13 14 -15 -49 0
-13 49 0
-13 -14 965 0
-13 14 15 0
14 910 -912 0
-14 -910 0
-14 912 0
15 -16 -964 0
15 16 -17 0
-15 -16 964 0
-15 16 17 0
16 882 -884 0
-16 -882 0
-16 884 0
17 18 41 48 0
17 18 41 -44 0
-17 -18 0
-17 -41 0
-17 44 -48 0
18 -39 683 -858 0
18 19 683 858 0
-18 -683 0
-18 39 -858 0
-18 -19 858 0
19 -20 -961 0
-19 961 0
-19 20 0
20 -21 35 0
-20 21 0
-20 -35 0
21 -28 29 0
21 22 29 -748 0
-21 -29 0
-21 -22 28 0
-21 28 748 0
22 23 0
22 26 -747 0
22 26 753 0
-22 -23 -26 0
-22 -23 747 -753 0
23 -24 25 -741 -748 0
-23 24 0
-23 -25 0
-23 741 0
-23 748 0
24 742 743 744 0
-24 -742 0
-24 -744 0
-24 -743 0
25 745 -746 0
-25 -745 0
-25 746 0
26 27 747 753 -754 0
-26 -747 0
-26 -27 0
-26 754 0
-26 -753 0
27 761 762 0
-27 -761 0
-27 -762 0
24 28 -741 0
25 28 -741 -747 0
-28 741 0
-24 -28 747 0
-24 -25 -28 0
29 31 34 0
29 31 -33 0
29 30 31 0
-29 -31 0
-29 -30 33 -34 0
30 770 771 772 0
-30 -770 0
-30 -772 0
-30 -771 0
30 31 -769 0
31 32 -769 -775 0
-31 769 0
-30 -31 775 0
-30 -31 -32 0
32 773 -774 0
-32 -773 0
-32 774 0
33 781 782 0
33 781 789 790 0
-33 -781 0
-33 -782 -789 0
-33 -782 -790 0
32 34 -769 775 -776 0
-34 776 0
-32 -34 0
-34 769 0
-34 -775 0
35 -36 -715 0
35 -38 -715 0
35 -37 -715 0
-35 715 0
-35 36 37 38 0
36 -716 717 718 0
-36 716 0
-36 -718 0
-36 -717 0
37 721 724 725 0
-37 -721 0
-37 -725 0
-37 -724 0
38 -721 722 723 0
-38 721 0
-38 -723 0
-38 -722 0
39 -40 962 0
19 39 40 0
-39 -40 -962 0
-19 -39 40 0
40 824 -826 0
-40 -824 0
-40 826 0
41 -42 -43 -868 0
41 -42 -43 -869 0
-41 43 0
-41 42 0
-41 868 869 0
42 871 872 873 874 0
-42 -874 0
-42 -873 0
-42 -871 0
-42 -872 0
43 -865 -866 -867 870 0
-43 867 0
-43 -870 0
-43 865 0
-43 866 0
39 44 -45 0
-39 -44 0
-44 45 0
45 46 47 0
-45 -46 0
-45 -47 0
46 845 -847 0
-46 -845 0
-46 847 0
47 837 838 839 0
-47 -837 0
-47 -839 0
-47 -838 0
46 48 -683 0
48 -683 963 0
-48 683 0
-46 -48 -963 0
49 -879 886 0
-49 879 0
-49 -886 0
50 51 -879 0
15 17 50 0
17 50 51 0
15 50 -879 0
-17 -50 879 0
-15 -50 -51 0
51 53 -879 -886 0
51 52 -879 -886 0
-51 879 0
-51 886 0
-51 -52 -53 0
52 -887 888 0
-52 887 0
-52 -888 0
53 890 -891 -892 893 0
-53 -890 0
-53 -893 0
-53 892 0
-53 891 0
54 -55 -57 0
54 -55 96 0
-54 55 0
-54 57 -96 0
4 55 -56 0
3 55 -56 0
-55 56 0
-3 -4 -55 0
56 -552 -581 -610 0
-56 552 0
-56 581 0
-56 610 0
57 -58 -95 -660 0
57 58 -59 -95 0
-57 95 0
-57 -58 660 0
-57 58 59 0
58 518 -520 0
-58 -518 0
-58 520 0
59 -60 -659 0
59 60 -61 0
-59 -60 659 0
-59 60 61 0
60 490 -492 0
-60 -490 0
-60 492 0
61 62 87 94 0
61 62 87 -90 0
-61 -62 0
-61 -87 0
-61 90 -94 0
62 -85 291 -466 0
62 63 291 466 0
-62 -291 0
-62 85 -466 0
-62 -63 466 0
63 -64 -656 0
-63 656 0
-63 64 0
64 65 -69 0
-64 -65 0
-64 69 0
65 -66 -323 0
65 -68 -323 0
65 -67 -323 0
-65 323 0
-65 66 67 68 0
66 -324 325 326 0
-66 324 0
-66 -326 0
-66 -325 0
67 329 332 333 0
-67 -329 0
-67 -333 0
-67 -332 0
68 -329 330 331 0
-68 329 0
-68 -331 0
-68 -330 0
69 70 -77 0
69 70 80 -356 0
-69 -70 0
-69 77 -80 0
-69 77 356 0
70 -71 74 0
70 74 377 0
-70 -74 0
-70 71 -377 0
71 -73 380 383 0
71 -72 -73 380 0
-71 -380 0
-71 73 0
-71 72 -383 0
72 381 -382 0
-72 -381 0
-72 382 0
73 378 379 0
-73 -378 0
-73 -379 0
72 -73 74 75 -76 0
73 -74 0
-74 -75 0
-72 -74 0
-74 76 0
75 389 390 0
75 389 397 398 0
-75 -389 0
-75 -390 -397 0
-75 -390 -398 0
76 -377 380 383 -384 0
-76 384 0
-76 -383 0
-76 377 0
-76 -380 0
77 78 -349 0
77 79 -349 -355 0
-77 349 0
-77 -78 355 0
-77 -78 -79 0
78 350 351 352 0
-78 -350 0
-78 -352 0
-78 -351 0
79 353 -354 0
-79 -353 0
-79 354 0
80 81 83 0
-80 -81 0
-80 -83 0
81 -82 355 -361 0
-81 82 0
-81 361 0
-81 -355 0
-78 79 82 -349 -356 0
78 -82 0
-79 -82 0
-82 349 0
-82 356 0
-82 83 -84 -369 0
-82 83 -84 -370 0
-83 84 0
82 -83 0
-83 369 370 0
84 355 361 -362 0
-84 362 0
-84 -361 0
-84 -355 0
85 -86 657 0
63 85 86 0
-85 -86 -657 0
-63 -85 86 0
86 432 -434 0
-86 -432 0
-86 434 0
87 -88 -89 -476 0
87 -88 -89 -477 0
-87 89 0
-87 88 0
-87 476 477 0
88 479 480 481 482 0
-88 -482 0
-88 -481 0
-88 -479 0
-88 -480 0
89 -473 -474 -475 478 0
-89 475 0
-89 -478 0
-89 473 0
-89 474 0
85 90 -91 0
-85 -90 0
-90 91 0
91 92 93 0
-91 -92 0
-91 -93 0
92 445 446 447 0
-92 -445 0
-92 -447 0
-92 -446 0
93 453 -455 0
-93 -453 0
-93 455 0
93 94 -291 0
94 -291 658 0
-94 291 0
-93 -94 -658 0
95 -487 494 0
-95 487 0
-95 -494 0
96 97 -487 0
59 61 96 0
61 96 97 0
59 96 -487 0
-61 -96 487 0
-59 -96 -97 0
97 99 -487 -494 0
97 98 -487 -494 0
-97 487 0
-97 494 0
-97 -98 -99 0
98 -495 496 0
-98 495 0
-98 -496 0
99 498 -499 -500 501 0
-99 -498 0
-99 -501 0
-99 500 0
-99 499 0
100 101 -111 0
-100 -101 0
-100 111 0
7 101 -102 0
7 101 110 0
-7 -101 0
-101 102 -110 0
14 -49 102 -103 0
-14 -49 102 -987 0
49 -102 0
14 -102 103 0
-14 -102 987 0
-16 103 -986 0
16 103 -104 0
-16 -103 986 0
16 -103 104 0
41 104 105 109 0
41 104 105 -108 0
-41 -104 0
-104 -105 0
-104 108 -109 0
105 -107 683 -858 0
105 106 683 858 0
-105 -683 0
-105 107 -858 0
-105 -106 858 0
-20 106 -983 0
-106 983 0
20 -106 0
-40 107 984 0
40 106 107 0
-40 -107 -984 0
40 -106 -107 0
-45 107 108 0
45 -108 0
-107 -108 0
46 109 -683 0
109 -683 985 0
-109 683 0
-46 -109 -985 0
103 110 -879 0
51 104 110 0
103 104 110 0
51 110 -879 0
-51 -103 -110 0
-104 -110 879 0
-55 111 -112 0
-55 111 120 0
55 -111 0
-111 112 -120 0
58 -95 112 -113 0
-58 -95 112 -682 0
95 -112 0
58 -112 113 0
-58 -112 682 0
-60 113 -681 0
60 113 -114 0
-60 -113 681 0
60 -113 114 0
87 114 115 119 0
87 114 115 -118 0
-87 -114 0
-114 -115 0
-114 118 -119 0
115 -117 291 -466 0
115 116 291 466 0
-115 -291 0
-115 117 -466 0
-115 -116 466 0
-64 116 -678 0
-116 678 0
64 -116 0
-86 117 679 0
86 116 117 0
-86 -117 -679 0
86 -116 -117 0
-91 117 118 0
91 -118 0
-117 -118 0
93 119 -291 0
119 -291 680 0
-119 291 0
-93 -119 -680 0
113 120 -487 0
97 114 120 0
113 114 120 0
97 120 -487 0
-97 -113 -120 0
-114 -120 487 0
121 122 131 -140 -265 0
121 -122 -131 -140 -265 0
-121 265 0
-121 -122 131 0
-121 140 0
-121 122 -131 0
7 122 -123 0
7 122 130 0
-7 -122 0
-122 123 -130 0
14 -49 123 -124 0
-14 -49 123 -960 0
49 -123 0
14 -123 124 0
-14 -123 960 0
-16 124 -959 0
16 124 -125 0
-16 -124 959 0
16 -124 125 0
41 125 126 129 0
41 125 126 -128 0
-41 -125 0
-125 -126 0
-125 128 -129 0
126 -127 683 -858 0
20 126 683 858 0
-126 -683 0
-126 127 -858 0
-20 -126 858 0
-40 127 957 0
20 40 127 0
-40 -127 -957 0
-20 40 -127 0
-45 127 128 0
45 -128 0
-127 -128 0
46 129 -683 0
129 -683 958 0
-129 683 0
-46 -129 -958 0
124 130 -879 0
51 125 130 0
124 125 130 0
51 130 -879 0
-51 -124 -130 0
-125 -130 879 0
-55 131 -132 0
-55 131 139 0
55 -131 0
-131 132 -139 0
58 -95 132 -133 0
-58 -95 132 -655 0
95 -132 0
58 -132 133 0
-58 -132 655 0
-60 133 -654 0
60 133 -134 0
-60 -133 654 0
60 -133 134 0
87 134 135 138 0
87 134 135 -137 0
-87 -134 0
-134 -135 0
-134 137 -138 0
135 -136 291 -466 0
64 135 291 466 0
-135 -291 0
-135 136 -466 0
-64 -135 466 0
-86 136 652 0
64 86 136 0
-86 -136 -652 0
-64 86 -136 0
-91 136 137 0
91 -137 0
-136 -137 0
93 138 -291 0
138 -291 653 0
-138 291 0
-93 -138 -653 0
133 139 -487 0
97 134 139 0
133 134 139 0
97 139 -487 0
-97 -133 -139 0
-134 -139 487 0
140 -141 189 199 -210 0
140 -141 -189 -199 -210 0
-140 210 0
-140 -189 199 0
-140 141 0
-140 189 -199 0
141 -142 -157 180 0
141 142 157 -171 0
141 142 157 180 0
141 -142 -157 -171 0
-141 142 -157 0
-141 -142 157 0
-141 171 -180 0
7 142 -155 0
7 142 -154 0
7 142 -143 0
-7 -142 0
-142 143 154 155 0
143 146 -147 0
-45 143 144 -147 0
-143 147 0
-143 -144 -146 0
45 -143 -146 0
-40 144 976 0
40 144 145 0
-40 -144 -976 0
40 -144 -145 0
-20 145 -975 0
-145 975 0
20 -145 0
46 146 -683 0
146 -683 977 0
-146 683 0
-46 -146 -977 0
147 -148 153 0
-147 148 0
-147 -153 0
41 148 149 0
-41 -148 0
-148 -149 0
-16 149 -879 0
149 -150 -879 0
-149 879 0
16 -149 150 0
-14 150 151 886 0
-52 150 151 -886 0
-150 -151 0
52 -150 -886 0
14 -150 886 0
53 151 -152 0
-53 -151 0
-151 152 0
152 -879 -886 -887 888 0
-152 887 0
-152 -888 0
-152 879 0
-152 886 0
-144 153 683 -858 0
145 153 683 858 0
-153 -683 0
144 -153 -858 0
-145 -153 858 0
-14 -49 154 -979 0
-154 979 0
14 -154 0
49 -154 0
-16 155 -156 -978 0
-155 978 0
16 -155 0
-155 156 0
150 156 -879 0
-156 879 0
-150 -156 0
-55 157 -158 0
-55 157 -169 0
-55 157 -168 0
55 -157 0
-157 158 168 169 0
158 161 -162 0
-91 158 159 -162 0
-158 162 0
-158 -159 -161 0
91 -158 -161 0
-86 159 671 0
86 159 160 0
-86 -159 -671 0
86 -159 -160 0
-64 160 -670 0
-160 670 0
64 -160 0
93 161 -291 0
161 -291 672 0
-161 291 0
-93 -161 -672 0
162 -163 167 0
-162 163 0
-162 -167 0
87 163 164 0
-87 -163 0
-163 -164 0
-60 164 -487 0
164 -165 -487 0
-164 487 0
60 -164 165 0
-58 165 166 494 0
-98 165 166 -494 0
-165 -166 0
98 -165 -494 0
58 -165 494 0
-98 99 166 -487 -494 0
98 -166 0
-99 -166 0
-166 487 0
-166 494 0
-159 167 291 -466 0
160 167 291 466 0
-167 -291 0
159 -167 -466 0
-160 -167 466 0
-58 -95 168 -674 0
-168 674 0
58 -168 0
95 -168 0
-60 169 -170 -673 0
-169 673 0
60 -169 0
-169 170 0
165 170 -487 0
-170 487 0
-165 -170 0
7 171 -179 0
7 171 -178 0
7 171 -172 0
-7 -171 0
-171 172 178 179 0
172 175 -176 0
-45 172 173 -176 0
-172 176 0
-172 -173 -175 0
45 -172 -175 0
-40 173 967 0
40 173 174 0
-40 -173 -967 0
40 -173 -174 0
-20 174 -966 0
-174 966 0
20 -174 0
46 175 -683 0
175 -683 968 0
-175 683 0
-46 -175 -968 0
-148 176 177 0
148 -176 0
-176 -177 0
-173 177 683 -858 0
174 177 683 858 0
-177 -683 0
173 -177 -858 0
-174 -177 858 0
-14 -49 178 -970 0
-178 970 0
14 -178 0
49 -178 0
-16 -156 179 -969 0
-179 969 0
16 -179 0
156 -179 0
-55 180 -181 0
-55 180 -188 0
-55 180 -187 0
55 -180 0
-180 181 187 188 0
181 184 -185 0
-91 181 182 -185 0
-181 185 0
-181 -182 -184 0
91 -181 -184 0
-86 182 662 0
86 182 183 0
-86 -182 -662 0
86 -182 -183 0
-64 183 -661 0
-183 661 0
64 -183 0
93 184 -291 0
184 -291 663 0
-184 291 0
-93 -184 -663 0
-163 185 186 0
163 -185 0
-185 -186 0
-182 186 291 -466 0
183 186 291 466 0
-186 -291 0
182 -186 -466 0
-183 -186 466 0
-58 -95 187 -665 0
-187 665 0
58 -187 0
95 -187 0
-60 -170 188 -664 0
-188 664 0
60 -188 0
170 -188 0
7 189 190 198 0
7 149 189 190 0
-7 -189 0
-189 -190 0
-149 -189 -198 0
190 192 879 0
16 190 191 192 0
-190 -192 0
-190 -191 -879 0
-16 -190 -879 0
-14 191 886 -974 0
14 -191 0
-191 974 0
-191 -886 0
41 192 193 197 0
41 192 193 -196 0
-41 -192 0
-192 -193 0
-192 196 -197 0
193 -195 683 -858 0
193 194 683 858 0
-193 -683 0
-193 195 -858 0
-193 -194 858 0
-20 194 -687 0
-194 687 0
20 -194 0
-40 195 971 0
40 194 195 0
-40 -195 -971 0
40 -194 -195 0
-45 195 196 0
45 -196 0
-195 -196 0
46 197 -683 0
197 -683 972 0
-197 683 0
-46 -197 -972 0
-150 191 198 0
191 198 973 0
-191 -198 0
150 -198 -973 0
-55 164 199 200 0
-55 199 200 209 0
55 -199 0
-199 -200 0
-164 -199 -209 0
200 -202 203 0
60 200 201 203 0
-200 -203 0
-200 -201 202 0
-60 -200 202 0
-58 201 494 -669 0
58 -201 0
-201 669 0
-201 -494 0
60 202 487 0
202 487 668 0
166 202 487 0
-202 -487 0
-60 -166 -202 -668 0
87 203 204 208 0
87 203 204 -207 0
-87 -203 0
-203 -204 0
-203 207 -208 0
204 -206 291 -466 0
204 205 291 466 0
-204 -291 0
-204 206 -466 0
-204 -205 466 0
-64 205 -295 0
-205 295 0
64 -205 0
-86 206 666 0
86 205 206 0
-86 -206 -666 0
86 -205 -206 0
-91 206 207 0
91 -207 0
-206 -207 0
93 208 -291 0
208 -291 667 0
-208 291 0
-93 -208 -667 0
-165 201 209 0
201 209 668 0
-201 -209 0
165 -209 -668 0
171 210 -211 -252 0
-180 210 -211 -252 0
-210 252 0
-210 211 0
-171 180 -210 0
211 212 242 245 -248 0
211 212 -242 -245 -248 0
-211 248 0
-211 -242 245 0
-211 -212 0
-211 242 -245 0
212 213 -225 0
-212 -213 0
-212 225 0
213 -214 216 0
-213 214 0
-213 -216 0
10 214 -215 0
9 214 -215 -915 0
-214 215 0
-9 -10 -214 0
-10 -214 915 0
41 152 215 0
41 53 215 0
-41 -215 0
-53 -152 -215 0
216 217 -219 0
216 223 224 0
216 -219 223 0
-216 219 -224 0
-216 -217 -223 0
-216 219 -223 0
217 -218 858 859 862 0
-217 218 0
-217 -862 0
-217 -858 0
-217 -859 0
218 860 861 0
-218 -860 0
-218 -861 0
219 220 -802 0
-21 219 -222 802 0
-219 -220 -802 0
21 -219 802 0
-219 222 802 0
-21 220 -221 0
21 -220 0
-220 221 0
221 -944 -946 0
35 221 944 0
221 -944 -950 0
-35 -221 944 0
-221 -944 946 950 0
222 -944 946 952 0
-222 944 0
-222 -952 0
-222 -946 0
217 223 683 0
-220 223 683 0
-223 -683 0
-217 220 -223 0
47 224 -683 0
-224 683 0
-47 -224 0
225 -230 291 0
92 225 226 -230 0
-225 230 0
-225 -226 -291 0
-92 -225 -291 0
226 227 -410 0
-69 226 -229 410 0
-226 -227 -410 0
69 -226 410 0
-226 229 410 0
-69 227 -228 0
69 -227 0
-227 228 0
228 -639 -641 0
65 228 639 0
228 -639 -645 0
-65 -228 639 0
-228 -639 641 645 0
229 -639 641 647 0
-229 639 0
-229 -647 0
-229 -641 0
226 230 232 -236 0
230 -231 232 -236 0
-230 236 0
-230 -232 0
-226 -230 231 0
231 466 467 0
-231 -466 0
-231 -467 0
-226 232 233 0
227 232 -234 0
-226 227 232 0
232 233 -234 0
226 -232 234 0
-227 -232 -233 0
233 468 469 470 0
-233 -468 0
-233 -470 0
-233 -469 0
234 -235 291 0
-234 -291 0
-234 235 0
-233 235 466 467 0
233 -235 0
-235 -467 0
-235 -466 0
-56 236 237 -240 0
56 -236 0
-236 -237 0
-236 240 0
-3 237 239 523 0
-3 237 -238 239 0
3 -237 0
-237 -239 0
-237 238 -523 0
-4 238 0
238 -532 538 0
238 532 539 0
4 -238 -532 -538 0
4 -238 532 -539 0
4 239 -532 538 0
4 239 532 539 0
-4 -239 0
-239 532 -539 0
-239 -532 -538 0
87 240 241 0
87 99 240 0
87 240 487 0
-87 -240 0
-99 -240 -241 -487 0
-98 241 -494 0
-241 494 0
98 -241 0
-69 -236 242 -243 244 0
236 -242 0
-242 -244 0
69 -242 0
-242 243 0
243 -639 641 0
-243 639 0
-243 -641 0
-92 244 -291 0
-244 291 0
92 -244 0
-21 -214 245 -246 247 0
-245 246 0
-245 -247 0
21 -245 0
214 -245 0
246 -944 946 0
-246 944 0
-246 -946 0
-47 247 -683 0
-247 683 0
47 -247 0
11 248 -249 0
9 248 -249 0
12 248 -249 0
-248 249 0
-9 -11 -12 -248 0
22 29 249 -250 0
-28 29 249 -250 0
-249 250 0
-29 -249 0
-22 28 -249 0
35 -215 247 250 -251 0
215 -250 0
-247 -250 0
-35 -250 0
-250 251 0
251 -686 -687 0
251 -685 688 0
251 -685 -687 0
251 -686 688 0
-251 687 -688 0
-251 685 686 0
213 252 -253 -259 0
-225 252 253 259 0
213 252 253 259 0
-225 252 -253 -259 0
-252 253 -259 0
-252 -253 259 0
-213 225 -252 0
-214 253 254 683 0
-214 253 254 -258 0
214 -253 0
-253 -254 0
-253 258 -683 0
217 254 257 0
254 255 257 0
-217 254 255 683 0
-217 -254 -255 0
217 -254 -257 0
-254 -257 -683 0
-21 255 -944 0
-21 35 255 256 0
21 -255 0
-255 -256 944 0
-35 -255 944 0
256 694 981 0
-256 -694 0
-256 -981 0
257 802 -982 0
-255 257 -802 0
255 -257 -802 0
-257 802 982 0
47 -257 258 0
-47 -258 0
257 -258 0
-236 259 260 291 0
-236 259 260 -264 0
236 -259 0
-259 -260 0
-259 264 -291 0
235 260 263 0
260 261 263 0
-235 260 261 291 0
-235 -260 -261 0
235 -260 -263 0
-260 -263 -291 0
-69 261 -639 0
65 -69 261 262 0
69 -261 0
-261 -262 639 0
-65 -261 639 0
262 302 676 0
-262 -302 0
-262 -676 0
263 410 -677 0
-261 263 -410 0
261 -263 -410 0
-263 410 677 0
92 -263 264 0
-92 -264 0
263 -264 0
101 265 -266 -276 0
-111 265 266 276 0
101 265 266 276 0
-111 265 -266 -276 0
-265 266 -276 0
-265 -266 276 0
-101 111 -265 0
7 266 -267 0
7 266 275 0
-7 -266 0
-266 267 -275 0
14 -49 267 -268 0
-14 -49 267 -956 0
49 -267 0
14 -267 268 0
-14 -267 956 0
-16 268 -955 0
16 268 -269 0
-16 -268 955 0
16 -268 269 0
41 269 270 274 0
41 269 270 -273 0
-41 -269 0
-269 -270 0
-269 273 -274 0
270 271 -683 954 0
46 270 271 -683 0
-270 683 0
-270 -271 0
-46 -270 -954 0
-45 271 272 0
45 -271 0
-271 -272 0
20 40 272 0
-40 272 953 0
40 272 688 0
-40 -272 -953 0
-20 40 -272 -688 0
-20 40 273 -688 0
-20 273 -688 858 0
20 -273 0
-273 688 0
-40 -273 -858 0
274 683 953 0
274 683 858 0
40 274 683 0
-274 -683 0
-40 -274 -858 -953 0
268 275 -879 0
51 269 275 0
268 269 275 0
51 275 -879 0
-51 -268 -275 0
-269 -275 879 0
-55 276 -277 0
-55 276 285 0
55 -276 0
-276 277 -285 0
58 -95 277 -278 0
-58 -95 277 -651 0
95 -277 0
58 -277 278 0
-58 -277 651 0
-60 278 -650 0
60 278 -279 0
-60 -278 650 0
60 -278 279 0
87 279 280 284 0
87 279 280 -283 0
-87 -279 0
-279 -280 0
-279 283 -284 0
280 281 -291 649 0
93 280 281 -291 0
-280 291 0
-280 -281 0
-93 -280 -649 0
-91 281 282 0
91 -281 0
-281 -282 0
64 86 282 0
-86 282 648 0
86 282 296 0
-86 -282 -648 0
-64 86 -282 -296 0
-64 86 283 -296 0
-64 283 -296 466 0
64 -283 0
-283 296 0
-86 -283 -466 0
284 291 648 0
284 291 466 0
86 284 291 0
-284 -291 0
-86 -284 -466 -648 0
278 285 -487 0
97 279 285 0
278 279 285 0
97 285 -487 0
-97 -278 -285 0
-279 -285 487 0
65 -240 286 287 -288 0
240 -286 0
-286 -287 0
-65 -286 0
-286 288 0
77 81 83 287 0
-77 -287 0
-83 -287 0
-81 -287 0
70 288 -289 -552 0
-288 552 0
-70 -288 0
-288 289 0
244 289 -290 296 0
244 289 -290 -295 0
-289 290 0
-244 -289 0
-289 295 -296 0
290 -293 -581 -610 0
290 -294 -581 -610 0
-290 610 0
-290 581 0
-290 293 294 0
1 2 0
-1 -2 0
988 0

